\ This file has been generated by DOcplex
\ ENCODING=ISO-8859-1
\Problem name: random_problem.lp

Minimize
 obj: - 212 x0 - 106 x1 - 53 x2 - 1180 x3 - 590 x4 - 295 x5 + 568 x6 + 284 x7
      + 142 x8 + [ 1376 x0^2 + 1376 x0*x1 + 688 x0*x2 + 1344 x0*x3 + 672 x0*x4
      + 336 x0*x5 + 1152 x0*x6 + 576 x0*x7 + 288 x0*x8 + 344 x1^2 + 344 x1*x2
      + 672 x1*x3 + 336 x1*x4 + 168 x1*x5 + 576 x1*x6 + 288 x1*x7 + 144 x1*x8
      + 86 x2^2 + 336 x2*x3 + 168 x2*x4 + 84 x2*x5 + 288 x2*x6 + 144 x2*x7
      + 72 x2*x8 + 1568 x3^2 + 1568 x3*x4 + 784 x3*x5 + 3200 x3*x6 + 1600 x3*x7
      + 800 x3*x8 + 392 x4^2 + 392 x4*x5 + 1600 x4*x6 + 800 x4*x7 + 400 x4*x8
      + 98 x5^2 + 800 x5*x6 + 400 x5*x7 + 200 x5*x8 + 4416 x6^2 + 4416 x6*x7
      + 2208 x6*x8 + 1104 x7^2 + 1104 x7*x8 + 276 x8^2 ]/2
Subject To
 c0: 4 x0 + 2 x1 + x2 + 4 x3 + 2 x4 + x5 + 4 x6 + 2 x7 + x8 = 7

Bounds
 0 <= x0 <= 1
 0 <= x1 <= 1
 0 <= x2 <= 1
 0 <= x3 <= 1
 0 <= x4 <= 1
 0 <= x5 <= 1
 0 <= x6 <= 1
 0 <= x7 <= 1
 0 <= x8 <= 1

Binaries
 x0 x1 x2 x3 x4 x5 x6 x7 x8
End
